100 992
948 819 420 801 408 942 72 561 795 585 597 696 465 744 171 354 858 183 888 606 471 957 552 765 495 363 588 222 984 261 795 798 873 348 768 786 741 189 339 408 321 444 519 129 24 375 513 3 594 687 237 240 753 129 234 519 552 993 213 489 549 954 168 900 600 153 261 972 753 939 318 957 183 156 108 519 3 267 21 870 504 819 906 255 519 177 303 459 786 573 246 3 687 273 273 387 102 606 543 465 
946 819 420 800 406 941 70 560 795 583 595 695 463 742 171 352 858 182 887 606 470 955 552 764 493 363 588 220 982 261 793 796 872 347 768 785 741 187 339 408 320 442 518 127 23 375 513 1 593 686 235 239 751 129 232 518 551 992 212 487 548 954 166 898 599 153 261 970 753 938 317 955 181 154 107 518 2 265 20 868 503 818 906 254 517 177 302 459 784 571 246 2 686 273 272 387 101 604 541 465 
